s td 36 14 50
b 1 31 50
b 2 4 37
b 3 11 30 36
b 4 5 18 24
b 5 6 19 26 36
b 6 17 28 32
b 7 25 29 45
b 8 10 19 40 50
b 9 1 2 7 9 13 16 19 21 25 34 35 36 40 43
b 10 1 7 12 13 16 19 21 25 32 34 35 36 40 43
b 11 5 7 12 16 19 21 25 32 34 35 36 40 43
b 12 5 7 21 25 40 42
b 13 3 7 25 40 42
b 14 5 7 12 18 19 21 25 32 34 35 36 43
b 15 5 6 12 18 19 32 34 35 36 43
b 16 5 6 12 18 32 34 36 43 49
b 17 5 6 12 14 43 49
b 18 6 32 35 47
b 19 18 21 25 30 32 35 36
b 20 21 25 29 30 32
b 21 1 7 12 13 16 19 21 32 35 36 43 46
b 22 1 7 12 13 15 21 32 35 46
b 23 4 7 15 35
b 24 1 7 13 15 17 21 32
b 25 7 13 19 39 43 46
b 26 7 39 41 43 46
b 27 12 16 21 23 35
b 28 1 9 13 16 25 34 36 38 40
b 29 1 8 9 13 16 25 34 38
b 30 8 9 13 27
b 31 1 2 7 9 13 16 25 33 34 35 36 43
b 32 7 9 13 16 22 25 33 34 35 36 43
b 33 9 13 16 20 22 25 34 36 43
b 34 20 22 25 36 43 44
b 35 2 9 19 21 40 50
b 36 2 21 48 50
1 35
2 23
3 19
4 14
5 15
6 24
7 20
8 35
9 10
9 28
9 31
9 35
10 11
10 21
10 27
11 12
11 14
12 13
14 15
14 19
15 16
15 18
16 17
19 20
21 22
21 25
22 23
22 24
25 26
28 29
29 30
31 32
32 33
33 34
35 36
